[694, 719, 705, 670, 683, 700, 696, 682, 689, 675, 1380, 1369, 1380, 1397, 1399, 1344, 1355, 1359, 1360, 1386, 2702, 2715, 2706, 2719, 2711, 2772, 2680, 2743, 2723, 2736, 5442, 5457, 5418, 5417, 5510, 5451, 5432, 5386, 5421, 5409, 10776, 10784, 10807, 10728, 10744, 10749, 10800, 10832, 10818, 10738]
